41 41
14 15
19 13
11 5
17 20
6 14
7 6
13 33
10 30
12 26
20 41
6 1
16 3
9 36
1 39
2 2
18 7
8 34
3 27
19 38
13 31
12 9
16 40
3 19
18 32
14 18
15 25
5 8
11 10
4 24
10 35
20 22
1 4
7 16
2 11
17 12
5 21
9 17
8 28
15 37
4 23
1 29
